(set-info :smt-lib-version 2.6)
(set-logic UF)
(set-info :source |Benchmarks from the paper: "Extending Sledgehammer with SMT Solvers" by Jasmin Blanchette, Sascha Bohme, and Lawrence C. Paulson, CADE 2011.  Translated to SMT2 by Andrew Reynolds and Morgan Deters.|)
(set-info :category "industrial")
(set-info :status unknown)
(declare-sort S1 0)
(declare-sort S2 0)
(declare-sort S3 0)
(declare-sort S4 0)
(declare-sort S5 0)
(declare-sort S6 0)
(declare-sort S7 0)
(declare-sort S8 0)
(declare-sort S9 0)
(declare-sort S10 0)
(declare-sort S11 0)
(declare-sort S12 0)
(declare-sort S13 0)
(declare-sort S14 0)
(declare-sort S15 0)
(declare-sort S16 0)
(declare-sort S17 0)
(declare-sort S18 0)
(declare-sort S19 0)
(declare-sort S20 0)
(declare-sort S21 0)
(declare-sort S22 0)
(declare-sort S23 0)
(declare-sort S24 0)
(declare-sort S25 0)
(declare-sort S26 0)
(declare-sort S27 0)
(declare-sort S28 0)
(declare-sort S29 0)
(declare-sort S30 0)
(declare-sort S31 0)
(declare-sort S32 0)
(declare-sort S33 0)
(declare-sort S34 0)
(declare-sort S35 0)
(declare-sort S36 0)
(declare-sort S37 0)
(declare-sort S38 0)
(declare-sort S39 0)
(declare-sort S40 0)
(declare-sort S41 0)
(declare-sort S42 0)
(declare-sort S43 0)
(declare-sort S44 0)
(declare-sort S45 0)
(declare-sort S46 0)
(declare-sort S47 0)
(declare-sort S48 0)
(declare-sort S49 0)
(declare-sort S50 0)
(declare-sort S51 0)
(declare-sort S52 0)
(declare-sort S53 0)
(declare-sort S54 0)
(declare-sort S55 0)
(declare-sort S56 0)
(declare-sort S57 0)
(declare-sort S58 0)
(declare-sort S59 0)
(declare-sort S60 0)
(declare-sort S61 0)
(declare-sort S62 0)
(declare-sort S63 0)
(declare-sort S64 0)
(declare-sort S65 0)
(declare-sort S66 0)
(declare-sort S67 0)
(declare-sort S68 0)
(declare-sort S69 0)
(declare-sort S70 0)
(declare-sort S71 0)
(declare-sort S72 0)
(declare-sort S73 0)
(declare-sort S74 0)
(declare-sort S75 0)
(declare-sort S76 0)
(declare-sort S77 0)
(declare-fun f1 () S1)
(declare-fun f2 () S1)
(declare-fun f3 (S4 S3) S5)
(declare-fun f4 (S6 S2) S4)
(declare-fun f5 () S6)
(declare-fun f6 () S4)
(declare-fun f7 (S2 S3) S3)
(declare-fun f8 (S8 S3) S9)
(declare-fun f9 (S10 S7) S8)
(declare-fun f10 () S10)
(declare-fun f11 (S11 S12) S9)
(declare-fun f12 () S11)
(declare-fun f13 (S7 S3) S12)
(declare-fun f14 (S14 S3) S15)
(declare-fun f15 (S16 S13) S14)
(declare-fun f16 () S16)
(declare-fun f17 (S17 S18) S15)
(declare-fun f18 () S17)
(declare-fun f19 (S13 S3) S18)
(declare-fun f20 (S21 S20) S9)
(declare-fun f21 (S22 S19) S21)
(declare-fun f22 () S22)
(declare-fun f23 (S19 S20) S12)
(declare-fun f24 (S24 S20) S15)
(declare-fun f25 (S25 S23) S24)
(declare-fun f26 () S25)
(declare-fun f27 (S23 S20) S18)
(declare-fun f28 (S27 S18) S5)
(declare-fun f29 (S28 S26) S27)
(declare-fun f30 () S28)
(declare-fun f31 (S26 S18) S3)
(declare-fun f32 (S30 S29) S17)
(declare-fun f33 () S30)
(declare-fun f34 (S29 S18) S18)
(declare-fun f35 (S31 S15) S1)
(declare-fun f36 (S32 S31) S31)
(declare-fun f37 (S33 S20) S32)
(declare-fun f38 (S34 S20) S33)
(declare-fun f39 (S35 S31) S34)
(declare-fun f40 () S35)
(declare-fun f41 () S31)
(declare-fun f42 () S20)
(declare-fun f43 () S20)
(declare-fun f44 () S31)
(declare-fun f45 (S21) S18)
(declare-fun f46 () S21)
(declare-fun f47 (S3 S36) S1)
(declare-fun f48 (S37 S38) S3)
(declare-fun f49 (S39 S38) S37)
(declare-fun f50 () S39)
(declare-fun f51 (S31 S40) S38)
(declare-fun f52 () S31)
(declare-fun f53 (S41 S21) S40)
(declare-fun f54 (S42 S43) S41)
(declare-fun f55 () S42)
(declare-fun f56 () S43)
(declare-fun f57 () S21)
(declare-fun f58 () S43)
(declare-fun f59 (S44) S36)
(declare-fun f60 () S44)
(declare-fun f61 (S45 S18) S1)
(declare-fun f62 (S20) S45)
(declare-fun f63 (S46 S3) S47)
(declare-fun f64 (S48 S20) S47)
(declare-fun f65 () S48)
(declare-fun f66 (S46) S36)
(declare-fun f67 (S8) S36)
(declare-fun f68 (S4) S36)
(declare-fun f69 (S49 S12) S15)
(declare-fun f70 (S12 S50) S1)
(declare-fun f71 (S49) S50)
(declare-fun f72 (S24) S18)
(declare-fun f73 (S18 S45) S1)
(declare-fun f74 (S17) S45)
(declare-fun f75 (S14) S36)
(declare-fun f76 () S18)
(declare-fun f77 () S36)
(declare-fun f78 () S45)
(declare-fun f79 (S27) S45)
(declare-fun f80 (S15) S1)
(declare-fun f81 (S47) S1)
(declare-fun f82 (S9) S1)
(declare-fun f83 (S5) S1)
(declare-fun f84 (S20) S29)
(declare-fun f85 (S51 S36) S36)
(declare-fun f86 (S3) S51)
(declare-fun f87 (S52 S45) S45)
(declare-fun f88 (S18) S52)
(declare-fun f89 (S53 S15) S15)
(declare-fun f90 (S54 S17) S53)
(declare-fun f91 (S55 S15) S54)
(declare-fun f92 () S55)
(declare-fun f93 (S56 S9) S9)
(declare-fun f94 (S57 S11) S56)
(declare-fun f95 (S58 S9) S57)
(declare-fun f96 () S58)
(declare-fun f97 (S59 S5) S5)
(declare-fun f98 (S60 S4) S59)
(declare-fun f99 (S61 S5) S60)
(declare-fun f100 () S61)
(declare-fun f101 (S62 S15) S53)
(declare-fun f102 () S62)
(declare-fun f103 (S63 S47) S47)
(declare-fun f104 (S64 S47) S63)
(declare-fun f105 () S64)
(declare-fun f106 (S65 S48) S63)
(declare-fun f107 (S66 S47) S65)
(declare-fun f108 () S66)
(declare-fun f109 (S67 S9) S56)
(declare-fun f110 () S67)
(declare-fun f111 (S68 S5) S59)
(declare-fun f112 () S68)
(declare-fun f113 (S5) S36)
(declare-fun f114 (S15) S45)
(declare-fun f115 (S9) S50)
(declare-fun f116 (S47) S18)
(declare-fun f117 (S69 S44) S1)
(declare-fun f118 () S69)
(declare-fun f119 (S36 S3) S1)
(declare-fun f120 (S50 S12) S1)
(declare-fun f121 (S18 S20) S1)
(declare-fun f122 () S50)
(declare-fun f123 (S70 S50) S50)
(declare-fun f124 (S12) S70)
(declare-fun f125 () S1)
(declare-fun f126 (S71 S72 S72 S72) S73)
(declare-fun f127 (S71 S72 S72) S73)
(declare-fun f128 (S74 S72 S72 S72) S75)
(declare-fun f129 (S74 S72 S72) S75)
(declare-fun f130 (S76 S72 S72 S72) S77)
(declare-fun f131 (S76 S72 S72) S77)
(assert (not (= f1 f2)))
(assert (forall ((?v0 S2) (?v1 S3)) (= (f3 (f4 f5 ?v0) ?v1) (f3 f6 (f7 ?v0 ?v1)))))
(assert (forall ((?v0 S7) (?v1 S3)) (= (f8 (f9 f10 ?v0) ?v1) (f11 f12 (f13 ?v0 ?v1)))))
(assert (forall ((?v0 S13) (?v1 S3)) (= (f14 (f15 f16 ?v0) ?v1) (f17 f18 (f19 ?v0 ?v1)))))
(assert (forall ((?v0 S19) (?v1 S20)) (= (f20 (f21 f22 ?v0) ?v1) (f11 f12 (f23 ?v0 ?v1)))))
(assert (forall ((?v0 S23) (?v1 S20)) (= (f24 (f25 f26 ?v0) ?v1) (f17 f18 (f27 ?v0 ?v1)))))
(assert (forall ((?v0 S26) (?v1 S18)) (= (f28 (f29 f30 ?v0) ?v1) (f3 f6 (f31 ?v0 ?v1)))))
(assert (forall ((?v0 S29) (?v1 S18)) (= (f17 (f32 f33 ?v0) ?v1) (f17 f18 (f34 ?v0 ?v1)))))
(assert (not (= (f35 (f36 (f37 (f38 (f39 f40 f41) f42) f43) f44) (f17 f18 (f45 f46))) f1)))
(assert (= (f47 (f48 (f49 f50 (f51 f52 (f53 (f54 f55 f56) f57))) (f51 f41 (f53 (f54 f55 f58) f46))) (f59 f60)) f1))
(assert (=> (= (f35 f52 (f17 f18 (f45 f57))) f1) (= (f35 f41 (f17 f18 (f45 f46))) f1)))
(assert (= (f35 (f36 (f37 (f38 (f39 f40 f52) f42) f43) f44) (f17 f18 (f45 f57))) f1))
(assert (=> (= (f35 f52 (f17 f18 (f45 f57))) f1) (= (f35 f41 (f17 f18 (f45 f46))) f1)))
(assert (= (f35 (f36 (f37 (f38 (f39 f40 f52) f42) f43) f44) (f17 f18 (f45 f57))) f1))
(assert (= (f47 (f48 (f49 f50 (f51 f52 (f53 (f54 f55 f56) f57))) (f51 f41 (f53 (f54 f55 f58) f46))) (f59 f60)) f1))
(assert (forall ((?v0 S21) (?v1 S20) (?v2 S12)) (=> (= (f20 ?v0 ?v1) (f11 f12 ?v2)) (= (f61 (f62 ?v1) (f45 ?v0)) f1))))
(assert (forall ((?v0 S46) (?v1 S3) (?v2 S20)) (=> (= (f63 ?v0 ?v1) (f64 f65 ?v2)) (= (f47 ?v1 (f66 ?v0)) f1))))
(assert (forall ((?v0 S8) (?v1 S3) (?v2 S12)) (=> (= (f8 ?v0 ?v1) (f11 f12 ?v2)) (= (f47 ?v1 (f67 ?v0)) f1))))
(assert (forall ((?v0 S4) (?v1 S3) (?v2 S3)) (=> (= (f3 ?v0 ?v1) (f3 f6 ?v2)) (= (f47 ?v1 (f68 ?v0)) f1))))
(assert (forall ((?v0 S49) (?v1 S12) (?v2 S18)) (=> (= (f69 ?v0 ?v1) (f17 f18 ?v2)) (= (f70 ?v1 (f71 ?v0)) f1))))
(assert (forall ((?v0 S24) (?v1 S20) (?v2 S18)) (=> (= (f24 ?v0 ?v1) (f17 f18 ?v2)) (= (f61 (f62 ?v1) (f72 ?v0)) f1))))
(assert (forall ((?v0 S17) (?v1 S18) (?v2 S18)) (=> (= (f17 ?v0 ?v1) (f17 f18 ?v2)) (= (f73 ?v1 (f74 ?v0)) f1))))
(assert (forall ((?v0 S14) (?v1 S3) (?v2 S18)) (=> (= (f14 ?v0 ?v1) (f17 f18 ?v2)) (= (f47 ?v1 (f75 ?v0)) f1))))
(assert (forall ((?v0 S31) (?v1 S20) (?v2 S20) (?v3 S31) (?v4 S31) (?v5 S20) (?v6 S20) (?v7 S31)) (= (= (f36 (f37 (f38 (f39 f40 ?v0) ?v1) ?v2) ?v3) (f36 (f37 (f38 (f39 f40 ?v4) ?v5) ?v6) ?v7)) (and (= ?v0 ?v4) (and (= ?v1 ?v5) (and (= ?v2 ?v6) (= ?v3 ?v7)))))))
(assert (forall ((?v0 S20) (?v1 S21)) (=> (= (f61 (f62 ?v0) (f45 ?v1)) f1) (exists ((?v2 S12)) (= (f20 ?v1 ?v0) (f11 f12 ?v2))))))
(assert (forall ((?v0 S3) (?v1 S46)) (=> (= (f47 ?v0 (f66 ?v1)) f1) (exists ((?v2 S20)) (= (f63 ?v1 ?v0) (f64 f65 ?v2))))))
(assert (forall ((?v0 S3) (?v1 S8)) (=> (= (f47 ?v0 (f67 ?v1)) f1) (exists ((?v2 S12)) (= (f8 ?v1 ?v0) (f11 f12 ?v2))))))
(assert (forall ((?v0 S3) (?v1 S4)) (=> (= (f47 ?v0 (f68 ?v1)) f1) (exists ((?v2 S3)) (= (f3 ?v1 ?v0) (f3 f6 ?v2))))))
(assert (forall ((?v0 S12) (?v1 S49)) (=> (= (f70 ?v0 (f71 ?v1)) f1) (exists ((?v2 S18)) (= (f69 ?v1 ?v0) (f17 f18 ?v2))))))
(assert (forall ((?v0 S20) (?v1 S24)) (=> (= (f61 (f62 ?v0) (f72 ?v1)) f1) (exists ((?v2 S18)) (= (f24 ?v1 ?v0) (f17 f18 ?v2))))))
(assert (forall ((?v0 S18) (?v1 S17)) (=> (= (f73 ?v0 (f74 ?v1)) f1) (exists ((?v2 S18)) (= (f17 ?v1 ?v0) (f17 f18 ?v2))))))
(assert (forall ((?v0 S3) (?v1 S14)) (=> (= (f47 ?v0 (f75 ?v1)) f1) (exists ((?v2 S18)) (= (f14 ?v1 ?v0) (f17 f18 ?v2))))))
(assert (forall ((?v0 S18) (?v1 S18)) (= (= (f17 f18 ?v0) (f17 f18 ?v1)) (= ?v0 ?v1))))
(assert (forall ((?v0 S20) (?v1 S20)) (= (= (f64 f65 ?v0) (f64 f65 ?v1)) (= ?v0 ?v1))))
(assert (forall ((?v0 S12) (?v1 S12)) (= (= (f11 f12 ?v0) (f11 f12 ?v1)) (= ?v0 ?v1))))
(assert (forall ((?v0 S3) (?v1 S3)) (= (= (f3 f6 ?v0) (f3 f6 ?v1)) (= ?v0 ?v1))))
(assert (forall ((?v0 S19)) (= (f45 (f21 f22 ?v0)) f76)))
(assert (forall ((?v0 S23)) (= (f72 (f25 f26 ?v0)) f76)))
(assert (forall ((?v0 S13)) (= (f75 (f15 f16 ?v0)) f77)))
(assert (forall ((?v0 S29)) (= (f74 (f32 f33 ?v0)) f78)))
(assert (forall ((?v0 S7)) (= (f67 (f9 f10 ?v0)) f77)))
(assert (forall ((?v0 S2)) (= (f68 (f4 f5 ?v0)) f77)))
(assert (forall ((?v0 S26)) (= (f79 (f29 f30 ?v0)) f78)))
(assert (forall ((?v0 S18)) (= (= (f80 (f17 f18 ?v0)) f1) false)))
(assert (forall ((?v0 S20)) (= (= (f81 (f64 f65 ?v0)) f1) false)))
(assert (forall ((?v0 S12)) (= (= (f82 (f11 f12 ?v0)) f1) false)))
(assert (forall ((?v0 S3)) (= (= (f83 (f3 f6 ?v0)) f1) false)))
(assert (forall ((?v0 S21) (?v1 S20) (?v2 S12)) (let ((?v_0 (f45 ?v0))) (=> (= (f20 ?v0 ?v1) (f11 f12 ?v2)) (= (f34 (f84 ?v1) ?v_0) ?v_0)))))
(assert (forall ((?v0 S24) (?v1 S20) (?v2 S18)) (let ((?v_0 (f72 ?v0))) (=> (= (f24 ?v0 ?v1) (f17 f18 ?v2)) (= (f34 (f84 ?v1) ?v_0) ?v_0)))))
(assert (forall ((?v0 S14) (?v1 S3) (?v2 S18)) (let ((?v_0 (f75 ?v0))) (=> (= (f14 ?v0 ?v1) (f17 f18 ?v2)) (= (f85 (f86 ?v1) ?v_0) ?v_0)))))
(assert (forall ((?v0 S17) (?v1 S18) (?v2 S18)) (let ((?v_0 (f74 ?v0))) (=> (= (f17 ?v0 ?v1) (f17 f18 ?v2)) (= (f87 (f88 ?v1) ?v_0) ?v_0)))))
(assert (forall ((?v0 S8) (?v1 S3) (?v2 S12)) (let ((?v_0 (f67 ?v0))) (=> (= (f8 ?v0 ?v1) (f11 f12 ?v2)) (= (f85 (f86 ?v1) ?v_0) ?v_0)))))
(assert (forall ((?v0 S4) (?v1 S3) (?v2 S3)) (let ((?v_0 (f68 ?v0))) (=> (= (f3 ?v0 ?v1) (f3 f6 ?v2)) (= (f85 (f86 ?v1) ?v_0) ?v_0)))))
(assert (forall ((?v0 S27) (?v1 S18) (?v2 S3)) (let ((?v_0 (f79 ?v0))) (=> (= (f28 ?v0 ?v1) (f3 f6 ?v2)) (= (f87 (f88 ?v1) ?v_0) ?v_0)))))
(assert (forall ((?v0 S15) (?v1 S17) (?v2 S18)) (= (f89 (f90 (f91 f92 ?v0) ?v1) (f17 f18 ?v2)) (f17 ?v1 ?v2))))
(assert (forall ((?v0 S9) (?v1 S11) (?v2 S12)) (= (f93 (f94 (f95 f96 ?v0) ?v1) (f11 f12 ?v2)) (f11 ?v1 ?v2))))
(assert (forall ((?v0 S5) (?v1 S4) (?v2 S3)) (= (f97 (f98 (f99 f100 ?v0) ?v1) (f3 f6 ?v2)) (f3 ?v1 ?v2))))
(assert (forall ((?v0 S15) (?v1 S15)) (= (f89 (f101 f102 ?v0) ?v1) (f89 (f90 (f91 f92 ?v1) f18) ?v0))))
(assert (forall ((?v0 S47) (?v1 S47)) (= (f103 (f104 f105 ?v0) ?v1) (f103 (f106 (f107 f108 ?v1) f65) ?v0))))
(assert (forall ((?v0 S9) (?v1 S9)) (= (f93 (f109 f110 ?v0) ?v1) (f93 (f94 (f95 f96 ?v1) f12) ?v0))))
(assert (forall ((?v0 S5) (?v1 S5)) (= (f97 (f111 f112 ?v0) ?v1) (f97 (f98 (f99 f100 ?v1) f6) ?v0))))
(assert (forall ((?v0 S3) (?v1 S5)) (= (= (f47 ?v0 (f113 ?v1)) f1) (= ?v1 (f3 f6 ?v0)))))
(assert (forall ((?v0 S18) (?v1 S15)) (= (= (f73 ?v0 (f114 ?v1)) f1) (= ?v1 (f17 f18 ?v0)))))
(assert (forall ((?v0 S12) (?v1 S9)) (= (= (f70 ?v0 (f115 ?v1)) f1) (= ?v1 (f11 f12 ?v0)))))
(assert (forall ((?v0 S20) (?v1 S47)) (= (= (f61 (f62 ?v0) (f116 ?v1)) f1) (= ?v1 (f64 f65 ?v0)))))
(assert (forall ((?v0 S31) (?v1 S40) (?v2 S31) (?v3 S40) (?v4 S44) (?v5 S20) (?v6 S20) (?v7 S31)) (let ((?v_0 (f59 ?v4))) (=> (= (f47 (f48 (f49 f50 (f51 ?v0 ?v1)) (f51 ?v2 ?v3)) ?v_0) f1) (= (f47 (f48 (f49 f50 (f51 (f36 (f37 (f38 (f39 f40 ?v0) ?v5) ?v6) ?v7) ?v1)) (f51 (f36 (f37 (f38 (f39 f40 ?v2) ?v5) ?v6) ?v7) ?v3)) ?v_0) f1)))))
(assert (= (f117 f118 f60) f1))
(assert (forall ((?v0 S5) (?v1 S36) (?v2 S3)) (=> (forall ((?v3 S3)) (=> (= (f47 ?v3 (f113 ?v0)) f1) (= (f119 ?v1 ?v3) f1))) (=> (= ?v0 (f3 f6 ?v2)) (= (f119 ?v1 ?v2) f1)))))
(assert (forall ((?v0 S15) (?v1 S45) (?v2 S18)) (=> (forall ((?v3 S18)) (=> (= (f73 ?v3 (f114 ?v0)) f1) (= (f61 ?v1 ?v3) f1))) (=> (= ?v0 (f17 f18 ?v2)) (= (f61 ?v1 ?v2) f1)))))
(assert (forall ((?v0 S9) (?v1 S50) (?v2 S12)) (=> (forall ((?v3 S12)) (=> (= (f70 ?v3 (f115 ?v0)) f1) (= (f120 ?v1 ?v3) f1))) (=> (= ?v0 (f11 f12 ?v2)) (= (f120 ?v1 ?v2) f1)))))
(assert (forall ((?v0 S47) (?v1 S18) (?v2 S20)) (=> (forall ((?v3 S20)) (=> (= (f61 (f62 ?v3) (f116 ?v0)) f1) (= (f121 ?v1 ?v3) f1))) (=> (= ?v0 (f64 f65 ?v2)) (= (f121 ?v1 ?v2) f1)))))
(assert (forall ((?v0 S18)) (= (f61 f78 ?v0) f1)))
(assert (forall ((?v0 S20)) (= (f121 f76 ?v0) f1)))
(assert (forall ((?v0 S3)) (= (f119 f77 ?v0) f1)))
(assert (forall ((?v0 S3)) (= (f47 ?v0 f77) f1)))
(assert (forall ((?v0 S12)) (= (f70 ?v0 f122) f1)))
(assert (forall ((?v0 S20)) (= (f61 (f62 ?v0) f76) f1)))
(assert (forall ((?v0 S18)) (= (f73 ?v0 f78) f1)))
(assert (forall ((?v0 S3)) (= (= (f47 ?v0 f77) f1) true)))
(assert (forall ((?v0 S12)) (= (= (f70 ?v0 f122) f1) true)))
(assert (forall ((?v0 S20)) (= (= (f61 (f62 ?v0) f76) f1) true)))
(assert (forall ((?v0 S18)) (= (= (f73 ?v0 f78) f1) true)))
(assert (forall ((?v0 S3) (?v1 S3) (?v2 S36)) (=> (= (f47 ?v0 (f85 (f86 ?v1) ?v2)) f1) (=> (=> (= ?v0 ?v1) false) (=> (=> (= (f47 ?v0 ?v2) f1) false) false)))))
(assert (forall ((?v0 S12) (?v1 S12) (?v2 S50)) (=> (= (f70 ?v0 (f123 (f124 ?v1) ?v2)) f1) (=> (=> (= ?v0 ?v1) false) (=> (=> (= (f70 ?v0 ?v2) f1) false) false)))))
(assert (forall ((?v0 S18) (?v1 S18) (?v2 S45)) (=> (= (f73 ?v0 (f87 (f88 ?v1) ?v2)) f1) (=> (=> (= ?v0 ?v1) false) (=> (=> (= (f73 ?v0 ?v2) f1) false) false)))))
(assert (forall ((?v0 S20) (?v1 S20) (?v2 S18)) (let ((?v_0 (f62 ?v0))) (=> (= (f61 ?v_0 (f34 (f84 ?v1) ?v2)) f1) (=> (=> (= ?v0 ?v1) false) (=> (=> (= (f61 ?v_0 ?v2) f1) false) false))))))
(assert (forall ((?v0 S3) (?v1 S36) (?v2 S3)) (=> (=> (not (= (f47 ?v0 ?v1) f1)) (= ?v0 ?v2)) (= (f47 ?v0 (f85 (f86 ?v2) ?v1)) f1))))
(assert (forall ((?v0 S12) (?v1 S50) (?v2 S12)) (=> (=> (not (= (f70 ?v0 ?v1) f1)) (= ?v0 ?v2)) (= (f70 ?v0 (f123 (f124 ?v2) ?v1)) f1))))
(assert (forall ((?v0 S18) (?v1 S45) (?v2 S18)) (=> (=> (not (= (f73 ?v0 ?v1) f1)) (= ?v0 ?v2)) (= (f73 ?v0 (f87 (f88 ?v2) ?v1)) f1))))
(assert (forall ((?v0 S20) (?v1 S18) (?v2 S20)) (let ((?v_0 (f62 ?v0))) (=> (=> (not (= (f61 ?v_0 ?v1) f1)) (= ?v0 ?v2)) (= (f61 ?v_0 (f34 (f84 ?v2) ?v1)) f1)))))
(assert (forall ((?v0 S18)) (= (= (f61 f78 ?v0) f1) (= f125 f1))))
(assert (forall ((?v0 S20)) (= (= (f121 f76 ?v0) f1) (= f125 f1))))
(assert (forall ((?v0 S3)) (= (= (f119 f77 ?v0) f1) (= f125 f1))))
(assert (forall ((?v0 S71) (?v1 S72) (?v2 S72) (?v3 S72)) (= (f126 ?v0 ?v1 ?v2 ?v3) (f127 ?v0 ?v1 ?v2))))
(assert (forall ((?v0 S74) (?v1 S72) (?v2 S72) (?v3 S72)) (= (f128 ?v0 ?v1 ?v2 ?v3) (f129 ?v0 ?v1 ?v2))))
(assert (forall ((?v0 S76) (?v1 S72) (?v2 S72) (?v3 S72)) (= (f130 ?v0 ?v1 ?v2 ?v3) (f131 ?v0 ?v1 ?v2))))
(assert (forall ((?v0 S3) (?v1 S36)) (=> (= (f47 ?v0 ?v1) f1) (= (f85 (f86 ?v0) ?v1) ?v1))))
(assert (forall ((?v0 S12) (?v1 S50)) (=> (= (f70 ?v0 ?v1) f1) (= (f123 (f124 ?v0) ?v1) ?v1))))
(assert (forall ((?v0 S18) (?v1 S45)) (=> (= (f73 ?v0 ?v1) f1) (= (f87 (f88 ?v0) ?v1) ?v1))))
(assert (forall ((?v0 S20) (?v1 S18)) (=> (= (f61 (f62 ?v0) ?v1) f1) (= (f34 (f84 ?v0) ?v1) ?v1))))
(assert (forall ((?v0 S3) (?v1 S36) (?v2 S3)) (=> (= (f47 ?v0 ?v1) f1) (= (f47 ?v0 (f85 (f86 ?v2) ?v1)) f1))))
(assert (forall ((?v0 S12) (?v1 S50) (?v2 S12)) (=> (= (f70 ?v0 ?v1) f1) (= (f70 ?v0 (f123 (f124 ?v2) ?v1)) f1))))
(assert (forall ((?v0 S18) (?v1 S45) (?v2 S18)) (=> (= (f73 ?v0 ?v1) f1) (= (f73 ?v0 (f87 (f88 ?v2) ?v1)) f1))))
(assert (forall ((?v0 S20) (?v1 S18) (?v2 S20)) (let ((?v_0 (f62 ?v0))) (=> (= (f61 ?v_0 ?v1) f1) (= (f61 ?v_0 (f34 (f84 ?v2) ?v1)) f1)))))
(assert (forall ((?v0 S3) (?v1 S36) (?v2 S36)) (let ((?v_0 (f86 ?v0))) (=> (not (= (f47 ?v0 ?v1) f1)) (=> (not (= (f47 ?v0 ?v2) f1)) (= (= (f85 ?v_0 ?v1) (f85 ?v_0 ?v2)) (= ?v1 ?v2)))))))
(assert (forall ((?v0 S12) (?v1 S50) (?v2 S50)) (let ((?v_0 (f124 ?v0))) (=> (not (= (f70 ?v0 ?v1) f1)) (=> (not (= (f70 ?v0 ?v2) f1)) (= (= (f123 ?v_0 ?v1) (f123 ?v_0 ?v2)) (= ?v1 ?v2)))))))
(assert (forall ((?v0 S18) (?v1 S45) (?v2 S45)) (let ((?v_0 (f88 ?v0))) (=> (not (= (f73 ?v0 ?v1) f1)) (=> (not (= (f73 ?v0 ?v2) f1)) (= (= (f87 ?v_0 ?v1) (f87 ?v_0 ?v2)) (= ?v1 ?v2)))))))
(assert (forall ((?v0 S20) (?v1 S18) (?v2 S18)) (let ((?v_0 (f62 ?v0)) (?v_1 (f84 ?v0))) (=> (not (= (f61 ?v_0 ?v1) f1)) (=> (not (= (f61 ?v_0 ?v2) f1)) (= (= (f34 ?v_1 ?v1) (f34 ?v_1 ?v2)) (= ?v1 ?v2)))))))
(assert (forall ((?v0 S18) (?v1 S45) (?v2 S18)) (= (= (f61 (f87 (f88 ?v0) ?v1) ?v2) f1) (or (= ?v0 ?v2) (= (f61 ?v1 ?v2) f1)))))
(assert (forall ((?v0 S20) (?v1 S18) (?v2 S20)) (= (= (f121 (f34 (f84 ?v0) ?v1) ?v2) f1) (or (= ?v0 ?v2) (= (f121 ?v1 ?v2) f1)))))
(assert (forall ((?v0 S3) (?v1 S36) (?v2 S3)) (= (= (f119 (f85 (f86 ?v0) ?v1) ?v2) f1) (or (= ?v0 ?v2) (= (f119 ?v1 ?v2) f1)))))
(assert (forall ((?v0 S3) (?v1 S3) (?v2 S36)) (= (= (f47 ?v0 (f85 (f86 ?v1) ?v2)) f1) (or (= ?v0 ?v1) (= (f47 ?v0 ?v2) f1)))))
(assert (forall ((?v0 S12) (?v1 S12) (?v2 S50)) (= (= (f70 ?v0 (f123 (f124 ?v1) ?v2)) f1) (or (= ?v0 ?v1) (= (f70 ?v0 ?v2) f1)))))
(assert (forall ((?v0 S18) (?v1 S18) (?v2 S45)) (= (= (f73 ?v0 (f87 (f88 ?v1) ?v2)) f1) (or (= ?v0 ?v1) (= (f73 ?v0 ?v2) f1)))))
(assert (forall ((?v0 S20) (?v1 S20) (?v2 S18)) (let ((?v_0 (f62 ?v0))) (= (= (f61 ?v_0 (f34 (f84 ?v1) ?v2)) f1) (or (= ?v0 ?v1) (= (f61 ?v_0 ?v2) f1))))))
(assert (forall ((?v0 S18) (?v1 S18) (?v2 S45)) (let ((?v_1 (f88 ?v0)) (?v_0 (f88 ?v1))) (= (f87 ?v_1 (f87 ?v_0 ?v2)) (f87 ?v_0 (f87 ?v_1 ?v2))))))
(assert (forall ((?v0 S20) (?v1 S20) (?v2 S18)) (let ((?v_1 (f84 ?v0)) (?v_0 (f84 ?v1))) (= (f34 ?v_1 (f34 ?v_0 ?v2)) (f34 ?v_0 (f34 ?v_1 ?v2))))))
(assert (forall ((?v0 S3) (?v1 S3) (?v2 S36)) (let ((?v_1 (f86 ?v0)) (?v_0 (f86 ?v1))) (= (f85 ?v_1 (f85 ?v_0 ?v2)) (f85 ?v_0 (f85 ?v_1 ?v2))))))
(assert (forall ((?v0 S18) (?v1 S45)) (let ((?v_0 (f88 ?v0))) (let ((?v_1 (f87 ?v_0 ?v1))) (= (f87 ?v_0 ?v_1) ?v_1)))))
(assert (forall ((?v0 S20) (?v1 S18)) (let ((?v_0 (f84 ?v0))) (let ((?v_1 (f34 ?v_0 ?v1))) (= (f34 ?v_0 ?v_1) ?v_1)))))
(assert (forall ((?v0 S3) (?v1 S36)) (let ((?v_0 (f86 ?v0))) (let ((?v_1 (f85 ?v_0 ?v1))) (= (f85 ?v_0 ?v_1) ?v_1)))))
(check-sat)
(exit)
